outputs/case_213.model.txt
days_after_fiscal_year_end = 76
company_in_reorganization = False
regulator_called_meeting_deadline_passed = False
paid_in_capital = 50000000
days_after_quarter_end = 0
days_after_second_quarter_end = 0
accounting_year = 110
stock_listed_or_traded = False
board_failed_to_call_meeting_for_election = False
duties_exercised_by_reorganizer = False
day_of_month = 0
annual_report_shareholders_meeting_approved = True
comply_registered_or_listed_country_laws = True
monthly_report_includes_guarantee_amount = True
second_quarter_report_approved_by_board = True
exempt_first_and_third_quarter_reports = True
second_quarter_report_audited = True
monthly_report_includes_other_required_items = True
first_listing_company = True
second_listing_company = True
exempt_monthly_operation_report = True
quarterly_report_reported_to_board = True
annual_report_approved_by_board = True
monthly_report_includes_consolidated_revenue = True
second_quarter_report_approved_by_supervisor = True
annual_report_audited_by_accountant = True
quarterly_report_signed_by_ceo_manager_accountant = True
annual_report_signed_by_ceo_manager_accountant = True
not_listed_nor_over_the_counter = True
annual_report_approved_by_supervisor = True
quarterly_report_reviewed_by_accountant = True
significant_event_reported_flag = True
annual_report_prepared_and_distributed = True
board_and_supervisor_duties_reorganization = True
annual_report_distributed = True
significant_event_reported = True
second_listing_report_requirements = True
quarterly_report_compliance = True
monthly_operation_report_content_ok = True
quarterly_report_timing = 1
annual_report_compliance = True
annual_report_timing = 1
annual_report_consistency = True
first_listing_second_quarter_report_requirements = True
board_and_supervisor_dismissal_due_to_no_meeting = True
violation_36_report_penalty = False
board_and_supervisor_dismissed = False
board_supervisor_dismissal_due_to_no_meeting = True
penalty = False
annual_shareholders_meeting_timing = 1
large_capital_annual_report_deadline = 1
monthly_operation_report_compliance = True
special_circumstances_annual_report_extension = True
board_supervisor_duties_reorganization = True